-1 0
0 69 52 48 46 38 62 60 114 43 90 7 28 27 6 71 87 91 72 0
0 61 44 110 49 85 23 96 57 18 37 59 30 39 14 104 98 36 118 0
0 12 115 29 4 102 94 25 65 101 24 81 63 119 79 51 58 0
0 64 8 103 111 105 11 55 106 86 31 5 67 120 100 35 15 53 0
0 83 9 45 19 54 77 109 32 117 66 21 84 93 2 33 75 47 0
0 99 95 3 73 34 108 113 92 112 97 89 88 116 20 70 107 13 41 76 0
0 78 56 80 42 74 22 50 16 17 40 26 10 1 82 68 0